4-WQUEENS-2-0 4 4 10 5
4 4 4 4 
2 0 1 0 10
0 0 5
0 1 5
1 0 5
1 1 5
1 2 5
2 1 5
2 2 5
2 3 5
3 2 5
3 3 5
2 0 2 0 8
0 0 5
0 2 5
1 1 5
1 3 5
2 0 5
2 2 5
3 1 5
3 3 5
2 0 3 0 6
0 0 5
0 3 5
1 1 5
2 2 5
3 0 5
3 3 5
2 1 2 0 10
0 0 5
0 1 5
1 0 5
1 1 5
1 2 5
2 1 5
2 2 5
2 3 5
3 2 5
3 3 5
2 1 3 0 8
0 0 5
0 2 5
1 1 5
1 3 5
2 0 5
2 2 5
3 1 5
3 3 5
2 2 3 0 10
0 0 5
0 1 5
1 0 5
1 1 5
1 2 5
2 1 5
2 2 5
2 3 5
3 2 5
3 3 5
1 0 0 2
1 1
3 1
1 1 0 2
1 1
2 1
1 2 0 2
1 1
2 1
1 3 0 2
0 1
2 1
